(declare-fun p0 () Real)
	(declare-fun p1 () Real)
	(declare-fun p158 () Real)
	(declare-fun p159 () Real)
	(declare-fun p472 () Real)
	(declare-fun p473 () Real)
	(declare-fun p630 () Real)
	(declare-fun p631 () Real)
	(declare-fun p944 () Real)
	(declare-fun p945 () Real)
	(declare-fun p1102 () Real)
	(declare-fun p1103 () Real)
	(assert (<= 0 p0 ))
	(assert (<= p0 1 ))
	(assert (<= 0 p1 ))
	(assert (<= p1 1 ))
	(assert (<= 0 p158 ))
	(assert (<= p158 1 ))
	(assert (<= 0 p159 ))
	(assert (<= p159 1 ))
	(assert (<= 0 p472 ))
	(assert (<= p472 1 ))
	(assert (<= 0 p473 ))
	(assert (<= p473 1 ))
	(assert (<= 0 p630 ))
	(assert (<= p630 1 ))
	(assert (<= 0 p631 ))
	(assert (<= p631 1 ))
	(assert (<= 0 p944 ))
	(assert (<= p944 1 ))
	(assert (<= 0 p945 ))
	(assert (<= p945 1 ))
	(assert (<= 0 p1102 ))
	(assert (<= p1102 1 ))
	(assert (<= 0 p1103 ))
	(assert (<= p1103 1 ))
	(assert (<= (/  2 3) (+ (* (/  1 3) p0) (* (- 1 (/  1 3)) p1))))
	(assert (<= 0 (+ (* 1 p0) (* (- 1 1) 0))))
	(assert (<= 1 (+ (* 1 p0) (* (- 1 1) 0))))
	(assert (<= p1 (+ (* (/  1 2) p158) (* (- 1 (/  1 2)) p159))))
	(assert (<= 1 (+ (* 1 p158) (* (- 1 1) 0))))
	(assert (<= 0 (+ (* 1 p158) (* (- 1 1) 0))))
	(assert (<= 1 (+ (* 1 p159) (* (- 1 1) 0))))
	(assert (<= (/  2 3) (+ (* (/  1 3) p472) (* (- 1 (/  1 3)) p473))))
	(assert (<= 1 (+ (* 1 p472) (* (- 1 1) 0))))
	(assert (<= 0 (+ (* 1 p472) (* (- 1 1) 0))))
	(assert (<= p473 (+ (* (/  1 2) p630) (* (- 1 (/  1 2)) p631))))
	(assert (<= 1 (+ (* 1 p630) (* (- 1 1) 0))))
	(assert (<= 0 (+ (* 1 p630) (* (- 1 1) 0))))
	(assert (<= 1 (+ (* 1 p631) (* (- 1 1) 0))))
	(assert (<= (/  2 3) (+ (* (/  1 3) p944) (* (- 1 (/  1 3)) p945))))
	(assert (<= 1 (+ (* 1 p944) (* (- 1 1) 0))))
	(assert (<= p945 (+ (* (/  1 2) p1102) (* (- 1 (/  1 2)) p1103))))
	(assert (<= 1 (+ (* 1 p1102) (* (- 1 1) 0))))
	(assert (<= 0 (+ (* 1 p1102) (* (- 1 1) 0))))
	(assert (<= 1 (+ (* 1 p1103) (* (- 1 1) 0))))
	(check-sat)